problems/csplib-prob049/set_partition_simple-models/noch/O2/minion/model_1_2-28-solution000001.eprime-solution
language ESSENCE' 1.0

letting setA_Occurrence be
        [false, false, false, true, false, true, true, true, true, true, true, true, false, false, true, true, false,
         false, false, false, false, false, false, true, false, true, true, true;
             int(1..28)]
letting setB_Explicit be [1, 2, 3, 5, 13, 14, 17, 18, 19, 20, 21, 22, 23, 25; int(1..14)]
